#######################################
### Exact MIP solver for the HHCRSP ###
#######################################
-- Instance file: new-instances/HHCRSP_200_40_95_0.4_C_RC.txt
-- Max threads: 4
-- Time limit: 999999 seconds
-- Use initial solution: No
Trivial flow violations prevented generating 312153 variables.
Version identifier: 20.1.0.0 | 2020-11-10 | 9bedb6d68
CPXPARAM_Threads                                 4
CPXPARAM_TimeLimit                               999999
Parallel mode: deterministic, using up to 4 threads for concurrent optimization:
 * Starting dual Simplex on 1 thread...
 * Starting Barrier on 3 threads...
Tried aggregator 1 time.
LP Presolve eliminated 21786 rows and 5447 columns.
Reduced LP has 449912 rows, 432242 columns, and 6949933 nonzeros.
Presolve time = 10.87 sec. (1643.85 ticks)
Symmetry aggregator did 724761 additional substitutions.
Initializing dual steep norms . . .

Iteration log . . .
Iteration:     1   Dual objective     =             1.000000
Iteration:   931   Dual objective     =           307.000000

Dual crossover.
  Dual:  Fixing 938 variables.
      937 DMoves:  Infeasibility  4.95289938e-13  Objective  3.08333333e+02
        0 DMoves:  Infeasibility  2.43269311e-13  Objective  3.08333333e+02
  Dual:  Pushed 84, exchanged 854.
  Primal:  Fixing 877 variables.
      876 PMoves:  Infeasibility  1.66533454e-16  Objective  3.08333333e+02
        0 PMoves:  Infeasibility  1.66533454e-16  Objective  3.08333333e+02
  Primal:  Pushed 765, exchanged 112.

Dual simplex solved model.


Solution status from MIP model:
-- Processing time: 19.688 sec.
-- Memory used: 531.744 MB
-- Best bound: inf
-- Obj value: 308.333
-- Gap: inf%
-- Total distance: 925
-- Total tardiness: 0
-- Largest tardiness: 0
